* ENCODING=ISO-8859-1
NAME          CPLEX
ROWS
 N  obj1    
 G  c1      
 G  c2      
 G  c3      
 G  c4      
 G  c5      
 G  c6      
 G  c7      
 G  c8      
 G  c9      
 G  c10     
 G  c11     
 G  c12     
 G  c13     
 G  c14     
 G  c15     
 G  c16     
 G  c17     
 G  c18     
 G  c19     
 G  c20     
 G  c21     
 G  c22     
 G  c23     
 G  c24     
 G  c25     
 G  c26     
 G  c27     
 G  c28     
 G  c29     
 G  c30     
 G  c31     
 G  c32     
 G  c33     
 G  c34     
 G  c35     
 G  c36     
 G  c37     
 G  c38     
 G  c39     
 G  c40     
 G  c41     
 G  c42     
 G  c43     
 G  c44     
 G  c45     
 G  c46     
 G  c47     
 G  c48     
 G  c49     
 G  c50     
 G  c51     
 G  c52     
 G  c53     
 G  c54     
 G  c55     
 G  c56     
 G  c57     
 G  c58     
 G  c59     
 G  c60     
COLUMNS
    MARK0000  'MARKER'                 'INTORG'
    x1        obj1                            1
    x1        c2                            763
    x1        c20                           915
    x1        c30                           326
    x1        c32                           198
    x1        c35                           980
    x1        c37                           957
    x1        c38                           716
    x1        c48                           408
    x1        c50                           172
    x2        obj1                            1
    x2        c10                           374
    x2        c15                           542
    x2        c16                           420
    x2        c22                           402
    x2        c30                           573
    x2        c35                           490
    x2        c42                           827
    x2        c43                           963
    x3        obj1                            1
    x3        c5                            168
    x3        c37                           649
    x3        c40                           328
    x3        c53                           125
    x4        obj1                            1
    x4        c4                            356
    x4        c17                           586
    x4        c41                           291
    x4        c42                           712
    x4        c54                           473
    x5        obj1                            1
    x5        c29                           822
    x5        c46                           577
    x5        c60                           654
    x6        obj1                            1
    x6        c2                            699
    x6        c19                           281
    x6        c46                           886
    x6        c50                           336
    x6        c52                           917
    x7        obj1                            1
    x7        c3                            260
    x7        c4                            462
    x7        c17                           574
    x7        c24                           877
    x7        c25                           114
    x7        c28                           519
    x7        c45                           722
    x7        c48                           780
    x7        c49                           769
    x8        obj1                            1
    x8        c19                           681
    x8        c27                           334
    x8        c42                           347
    x9        obj1                            1
    x9        c13                           323
    x9        c23                           857
    x9        c49                           830
    x9        c53                           849
    x10       obj1                            1
    x10       c1                            994
    x10       c15                           869
    x10       c27                           459
    x10       c35                           905
    x11       obj1                            1
    x11       c7                            685
    x11       c15                           528
    x11       c22                           540
    x11       c25                           324
    x11       c27                           634
    x11       c32                           129
    x11       c42                           528
    x11       c48                           895
    x11       c54                           563
    x11       c59                           376
    x12       obj1                            1
    x12       c3                            798
    x12       c42                           942
    x12       c43                           718
    x12       c52                           748
    x12       c60                           941
    x13       obj1                            1
    x13       c1                            881
    x13       c37                           570
    x13       c45                           181
    x13       c48                           812
    x14       obj1                            1
    x14       c2                            125
    x14       c4                            255
    x14       c16                           101
    x14       c25                           753
    x14       c26                           377
    x14       c42                           616
    x14       c49                           483
    x14       c53                           599
    x15       obj1                            1
    x15       c30                           529
    x15       c32                           151
    x15       c41                           293
    x15       c44                           317
    x15       c50                           741
    x16       obj1                            1
    x16       c5                            393
    x16       c9                            650
    x16       c10                           523
    x16       c16                           996
    x16       c17                           973
    x16       c20                           984
    x16       c22                           101
    x16       c38                           222
    x16       c45                           402
    x16       c49                           284
    x16       c53                           449
    x17       obj1                            1
    x17       c11                           446
    x17       c33                           685
    x17       c44                           723
    x17       c57                           606
    x18       obj1                            1
    x18       c3                            664
    x18       c4                            938
    x18       c16                           381
    x18       c23                           732
    x18       c25                           545
    x18       c35                           972
    x18       c38                           256
    x18       c50                           348
    x19       obj1                            1
    x19       c18                           830
    x19       c19                           779
    x19       c20                           161
    x19       c21                           372
    x19       c29                           311
    x19       c45                           666
    x19       c51                           512
    x19       c53                           264
    x20       obj1                            1
    x20       c5                            442
    x20       c13                           485
    x20       c40                           422
    x20       c42                           671
    x20       c44                           715
    x20       c46                           320
    x20       c48                           641
    x20       c59                           868
    x21       obj1                            1
    x21       c7                            879
    x21       c38                           825
    x21       c47                           540
    x21       c59                           550
    x22       obj1                            1
    x22       c5                            957
    x22       c30                           894
    x23       obj1                            1
    x23       c2                            422
    x23       c27                           405
    x23       c31                           149
    x23       c49                           502
    x24       obj1                            1
    x24       c21                           230
    x24       c31                           679
    x24       c34                           611
    x24       c41                           555
    x24       c43                           843
    x24       c44                           788
    x25       obj1                            1
    x25       c3                            176
    x25       c38                           744
    x25       c51                           921
    x25       c55                           773
    x26       obj1                            1
    x26       c11                           911
    x26       c13                           261
    x26       c19                           761
    x26       c21                           259
    x26       c36                           852
    x26       c37                           975
    x26       c58                           260
    x27       obj1                            1
    x27       c22                           264
    x27       c26                           859
    x27       c40                           538
    x27       c56                           827
    x27       c58                           417
    x28       obj1                            1
    x28       c2                            752
    x28       c5                            231
    x28       c16                           769
    x28       c42                           975
    x28       c48                           645
    x29       obj1                            1
    x29       c6                            615
    x29       c25                           412
    x29       c32                           286
    x29       c39                           363
    x29       c41                           834
    x29       c44                           484
    x29       c55                           726
    x30       obj1                            1
    x30       c27                           453
    x30       c29                           748
    x30       c32                           322
    x30       c34                           691
    x30       c39                           285
    x30       c59                           203
    x30       c60                           323
    x31       obj1                            1
    x31       c46                           586
    x31       c59                           564
    x32       obj1                            1
    x32       c21                           640
    x32       c34                           713
    x32       c55                           698
    x33       obj1                            1
    x33       c3                            843
    x33       c7                            101
    x33       c12                           368
    x33       c15                           211
    x33       c17                           986
    x33       c18                           393
    x33       c25                           785
    x33       c36                           580
    x33       c54                           551
    x33       c56                           947
    x34       obj1                            1
    x34       c4                            681
    x34       c7                            368
    x34       c14                           754
    x34       c22                           642
    x34       c29                           750
    x34       c33                           924
    x34       c41                           943
    x34       c46                           114
    x34       c51                           198
    x34       c54                           632
    x34       c59                           102
    x35       obj1                            1
    x35       c11                           385
    x35       c12                           335
    x35       c36                           315
    x35       c41                           355
    x35       c47                           871
    x35       c60                           840
    x36       obj1                            1
    x36       c21                           254
    x36       c26                           566
    x36       c29                           280
    x36       c39                           646
    x36       c59                           739
    x36       c60                           389
    x37       obj1                            1
    x37       c4                            490
    x37       c6                            233
    x37       c21                           955
    x37       c23                           798
    x37       c24                           952
    x37       c35                           993
    x37       c51                           140
    x38       obj1                            1
    x38       c36                           617
    x38       c57                           169
    x39       obj1                            1
    x39       c5                            881
    x39       c8                            956
    x39       c14                           809
    x39       c19                           511
    x39       c27                           554
    x39       c31                           512
    x39       c46                           744
    x39       c55                           388
    x39       c60                           863
    x40       obj1                            1
    x40       c24                           646
    x40       c29                           495
    x40       c38                           987
    x40       c44                           820
    x41       obj1                            1
    x41       c4                            635
    x41       c5                            295
    x41       c16                           269
    x41       c18                           714
    x41       c39                           157
    x41       c44                           469
    x41       c53                           572
    x41       c59                           705
    x42       obj1                            1
    x42       c2                            858
    x42       c4                            601
    x42       c5                            275
    x42       c15                           607
    x42       c26                           532
    x43       obj1                            1
    x43       c11                           318
    x43       c25                           833
    x43       c40                           797
    x43       c44                           515
    x43       c53                           888
    x44       obj1                            1
    x44       c15                           409
    x44       c28                           544
    x44       c30                           693
    x44       c43                           568
    x44       c50                           145
    x45       obj1                            1
    x45       c8                            361
    x45       c24                           965
    x45       c30                           321
    x45       c33                           984
    x45       c38                           120
    x46       obj1                            1
    x46       c3                            220
    x46       c6                            304
    x46       c11                           824
    x46       c16                           454
    x46       c20                           575
    x46       c23                           638
    x46       c28                           260
    x46       c33                           758
    x46       c39                           890
    x46       c49                           619
    x46       c55                           542
    x47       obj1                            1
    x47       c8                            893
    x47       c15                           355
    x47       c47                           959
    x47       c50                           416
    x47       c52                           875
    x47       c54                           131
    x47       c57                           975
    x48       obj1                            1
    x48       c7                            913
    x48       c46                           984
    x48       c51                           900
    x48       c59                           273
    x49       obj1                            1
    x49       c37                           564
    x49       c51                           438
    x49       c60                           981
    x50       obj1                            1
    x50       c7                            467
    x51       obj1                            1
    x51       c11                           131
    x51       c12                           999
    x51       c13                           555
    x51       c19                           915
    x51       c33                           856
    x51       c46                           379
    x51       c52                           397
    x52       obj1                            1
    x52       c5                            865
    x52       c9                            142
    x52       c21                           784
    x52       c24                           266
    x52       c36                           899
    x52       c37                           314
    x52       c52                           151
    x53       obj1                            1
    x53       c15                           176
    x53       c19                           799
    x53       c33                           306
    x53       c52                           747
    x53       c60                           638
    x54       obj1                            1
    x54       c15                           224
    x54       c22                           188
    x54       c26                           790
    x54       c38                           972
    x54       c42                           286
    x54       c46                           622
    x54       c49                           784
    x54       c54                           311
    x54       c58                           184
    x55       obj1                            1
    x55       c9                            316
    x55       c25                           752
    x55       c33                           135
    x55       c40                           248
    x55       c48                           941
    x55       c49                           793
    x55       c60                           208
    x56       obj1                            1
    x56       c1                            731
    x56       c10                           960
    x56       c23                           587
    x56       c48                           933
    x56       c50                           261
    x56       c56                           680
    x57       obj1                            1
    x57       c7                            206
    x57       c24                           809
    x57       c29                           268
    x57       c35                           434
    x57       c45                           679
    x58       obj1                            1
    x58       c1                            139
    x58       c2                            856
    x58       c11                           477
    x58       c14                           946
    x58       c21                           640
    x58       c30                           713
    x58       c50                           437
    x59       obj1                            1
    x59       c3                            531
    x59       c24                           583
    x59       c44                           977
    x60       obj1                            1
    x60       c16                           536
    x60       c39                           406
    x60       c43                           905
    x60       c50                           147
    x60       c51                           623
    x60       c58                           775
    MARK0001  'MARKER'                 'INTEND'
RHS
    rhs       c1                           1373
    rhs       c2                           2238
    rhs       c3                           1746
    rhs       c4                           2209
    rhs       c5                           2254
    rhs       c6                            576
    rhs       c7                           1810
    rhs       c8                           1105
    rhs       c9                            554
    rhs       c10                           929
    rhs       c11                          1746
    rhs       c12                           851
    rhs       c13                           812
    rhs       c14                          1255
    rhs       c15                          1961
    rhs       c16                          1963
    rhs       c17                          1560
    rhs       c18                           969
    rhs       c19                          2364
    rhs       c20                          1318
    rhs       c21                          2067
    rhs       c22                          1069
    rhs       c23                          1806
    rhs       c24                          2549
    rhs       c25                          2259
    rhs       c26                          1562
    rhs       c27                          1420
    rhs       c28                           662
    rhs       c29                          1837
    rhs       c30                          2025
    rhs       c31                           670
    rhs       c32                           543
    rhs       c33                          2324
    rhs       c34                          1008
    rhs       c35                          2387
    rhs       c36                          1632
    rhs       c37                          2015
    rhs       c38                          2421
    rhs       c39                          1374
    rhs       c40                          1167
    rhs       c41                          1636
    rhs       c42                          2952
    rhs       c43                          1999
    rhs       c44                          2904
    rhs       c45                          1325
    rhs       c46                          2606
    rhs       c47                          1185
    rhs       c48                          3028
    rhs       c49                          2532
    rhs       c50                          1502
    rhs       c51                          1866
    rhs       c52                          1918
    rhs       c53                          1873
    rhs       c54                          1331
    rhs       c55                          1564
    rhs       c56                          1227
    rhs       c57                           875
    rhs       c58                           818
    rhs       c59                          2190
    rhs       c60                          2919
BOUNDS
 LI bnd       x1        0
 LI bnd       x2        0
 LI bnd       x3        0
 LI bnd       x4        0
 LI bnd       x5        0
 LI bnd       x6        0
 LI bnd       x7        0
 LI bnd       x8        0
 LI bnd       x9        0
 LI bnd       x10       0
 LI bnd       x11       0
 LI bnd       x12       0
 LI bnd       x13       0
 LI bnd       x14       0
 LI bnd       x15       0
 LI bnd       x16       0
 LI bnd       x17       0
 LI bnd       x18       0
 LI bnd       x19       0
 LI bnd       x20       0
 LI bnd       x21       0
 LI bnd       x22       0
 LI bnd       x23       0
 LI bnd       x24       0
 LI bnd       x25       0
 LI bnd       x26       0
 LI bnd       x27       0
 LI bnd       x28       0
 LI bnd       x29       0
 LI bnd       x30       0
 LI bnd       x31       0
 LI bnd       x32       0
 LI bnd       x33       0
 LI bnd       x34       0
 LI bnd       x35       0
 LI bnd       x36       0
 LI bnd       x37       0
 LI bnd       x38       0
 LI bnd       x39       0
 LI bnd       x40       0
 LI bnd       x41       0
 LI bnd       x42       0
 LI bnd       x43       0
 LI bnd       x44       0
 LI bnd       x45       0
 LI bnd       x46       0
 LI bnd       x47       0
 LI bnd       x48       0
 LI bnd       x49       0
 LI bnd       x50       0
 LI bnd       x51       0
 LI bnd       x52       0
 LI bnd       x53       0
 LI bnd       x54       0
 LI bnd       x55       0
 LI bnd       x56       0
 LI bnd       x57       0
 LI bnd       x58       0
 LI bnd       x59       0
 LI bnd       x60       0
ENDATA
